Problem:    
Rows:       256
Columns:    89 (72 integer, 72 binary)
Non-zeros:  960
Status:     INTEGER OPTIMAL
Objective:  value = 75.404427 (MINimum)

   No.   Row name        Activity     Lower bound   Upper bound
------ ------------    ------------- ------------- -------------
     1 r.5                    1075.4             0               
     2 r.6                  -941.188      -981.877               
     3 r.7                   75.4044             0               
     4 r.8                  -981.156      -985.504               
     5 r.9                    1075.4             0               
     6 r.10                 -975.805      -980.153               
     7 r.11                  75.4044             0               
     8 r.12                  44.5294      -983.195               
     9 r.13                  75.4044             0               
    10 r.14                  43.5616      -969.864               
    11 r.15                   1075.4             0               
    12 r.16                 -956.438      -977.933               
    13 r.17                  75.4044             0               
    14 r.18                 -979.421      -983.769               
    15 r.19                   1075.4             0               
    16 r.20                 -981.203      -985.551               
    17 r.21                   1075.4             0               
    18 r.22                 -960.666      -985.539               
    19 r.23                  75.4044             0               
    20 r.24                  45.4973      -988.176               
    21 r.25                   1075.4             0               
    22 r.26                 -997.007      -997.007               
    23 r.27                  75.4044             0               
    24 r.28                  6.28383      -970.033               
    25 r.29                  75.4044             0               
    26 r.30                  75.4044      -961.631               
    27 r.31                   1075.4             0               
    28 r.32                 -924.596      -984.085               
    29 r.33                  75.4044             0               
    30 r.34                  75.4044      -961.372               
    31 r.35                   1075.4             0               
    32 r.36                 -940.511      -984.072               
    33 r.37                        1             1             = 
    34 r.38                        1             1             = 
    35 r.39                        1             1             = 
    36 r.40                        1             1             = 
    37 r.41                        1             1             = 
    38 r.42                        1             1             = 
    39 r.43                        1             1             = 
    40 r.44                        1             1             = 
    41 r.45                        2             2               
    42 r.46                       -2         -1001               
    43 r.47                 -35.2939      -980.153               
    44 r.48                     1000             2               
    45 r.49                    -1000         -1001               
    46 r.50                  3026.65      -983.195               
    47 r.51                     1001             2               
    48 r.52                    -1001         -1001               
    49 r.53                  1984.07      -969.864               
    50 r.54                     1001             2               
    51 r.55                    -1001         -1001               
    52 r.56                  3025.69      -977.933               
    53 r.57                     1001             2               
    54 r.58                    -1001         -1001               
    55 r.59                   961.09      -983.769               
    56 r.60                     1001             2               
    57 r.61                    -1001         -1001               
    58 r.62                  3000.92      -985.551               
    59 r.63                        2             2               
    60 r.64                       -2         -1001               
    61 r.65                 -20.1554      -985.539               
    62 r.66                     1000             2               
    63 r.67                    -1000         -1001               
    64 r.68                  3027.62      -988.176               
    65 r.69                 -945.536      -981.877               
    66 r.70                 -985.504      -985.504               
    67 r.71                 -945.536      -981.877               
    68 r.72                 -985.504      -985.504               
    69 r.73                  15.9151      -961.631               
    70 r.74                 -984.085      -984.085               
    71 r.75                  1057.53      -961.631               
    72 r.76                  57.5282      -984.085               
    73 r.77                     1001             2               
    74 r.78                    -1001         -1001               
    75 r.79                  2015.92      -961.372               
    76 r.80                     1001             2               
    77 r.81                    -1001         -1001               
    78 r.82                  3041.61      -984.072               
    79 r.83                        2             2               
    80 r.84                       -2         -1001               
    81 r.85                  33.9388       18.1227               
    82 r.86                     1000             2               
    83 r.87                    -1000         -1001               
    84 r.88                  975.282       14.4959               
    85 r.89                     1001             2               
    86 r.90                    -1001         -1001               
    87 r.91                  2018.69      -969.864               
    88 r.92                     1001             2               
    89 r.93                    -1001         -1001               
    90 r.94                     2000      -977.933               
    91 r.95                     1001             2               
    92 r.96                    -1001         -1001               
    93 r.97                  995.706      -983.769               
    94 r.98                     1001             2               
    95 r.99                    -1001         -1001               
    96 r.100                 1975.24      -985.551               
    97 r.101                       2             2               
    98 r.102                      -2         -1001               
    99 r.103                -985.539      -985.539               
   100 r.104                    1000             2               
   101 r.105                   -1000         -1001               
   102 r.106                 2001.94      -988.176               
   103 r.107                -980.153      -980.153               
   104 r.108                 40.1813      -983.195               
   105 r.109                -980.153      -980.153               
   106 r.110                 40.1813      -983.195               
   107 r.111                    1001             2               
   108 r.112                   -1001         -1001               
   109 r.113                 2050.53      -961.631               
   110 r.114                    1001             2               
   111 r.115                   -1001         -1001               
   112 r.116                 2031.84      -984.085               
   113 r.117                 50.5315      -961.372               
   114 r.118                -965.384      -984.072               
   115 r.119                 31.8428      -961.372               
   116 r.120                -984.072      -984.072               
   117 r.121                    1001             2               
   118 r.122                   -1001         -1001               
   119 r.123                 2015.25       18.1227               
   120 r.124                    1001             2               
   121 r.125                   -1001         -1001               
   122 r.126                 975.282       14.4959               
   123 r.127                    1001             2               
   124 r.128                   -1001         -1001               
   125 r.129                 1980.63       19.8472               
   126 r.130                    1001             2               
   127 r.131                   -1001         -1001               
   128 r.132                 2000.97       16.8051               
   129 r.133                 1022.98      -969.864               
   130 r.134                 22.9824      -977.933               
   131 r.135                 24.7648      -969.864               
   132 r.136                -975.235      -977.933               
   133 r.137                    1001             2               
   134 r.138                   -1001         -1001               
   135 r.139                 1995.77      -985.539               
   136 r.140                    1001             2               
   137 r.141                   -1001         -1001               
   138 r.142                 2001.94      -988.176               
   139 r.143                 39.2135      -969.864               
   140 r.144                -960.787      -977.933               
   141 r.145                 39.2135      -969.864               
   142 r.146                -960.787      -977.933               
   143 r.147                    1000             2               
   144 r.148                   -1000         -1001               
   145 r.149                 2031.84      -961.631               
   146 r.150                       2             2               
   147 r.151                      -2         -1001               
   148 r.152                -968.157      -984.085               
   149 r.153                 31.8428      -961.372               
   150 r.154                -984.072      -984.072               
   151 r.155                 31.8428      -961.372               
   152 r.156                -984.072      -984.072               
   153 r.157                    1001             2               
   154 r.158                   -1001         -1001               
   155 r.159                 3038.23       18.1227               
   156 r.160                    1001             2               
   157 r.161                   -1001         -1001               
   158 r.162                 1000.05       14.4959               
   159 r.163                    1001             2               
   160 r.164                   -1001         -1001               
   161 r.165                 3003.62       19.8472               
   162 r.166                    1001             2               
   163 r.167                   -1001         -1001               
   164 r.168                 2025.73       16.8051               
   165 r.169                    1001             2               
   166 r.170                   -1001         -1001               
   167 r.171                 3018.75      -985.539               
   168 r.172                    1001             2               
   169 r.173                   -1001         -1001               
   170 r.174                  2026.7      -988.176               
   171 r.175                -983.769      -983.769               
   172 r.176                -985.551      -985.551               
   173 r.177                -983.769      -983.769               
   174 r.178                -985.551      -985.551               
   175 r.179                    1000             2               
   176 r.180                   -1000         -1001               
   177 r.181                 3054.83      -961.631               
   178 r.182                       2             2               
   179 r.183                      -2         -1001               
   180 r.184                -943.392      -984.085               
   181 r.185                 1054.83      -961.372               
   182 r.186                 38.9101      -984.072               
   183 r.187                 56.6076      -961.372               
   184 r.188                -959.308      -984.072               
   185 r.189                       2             2               
   186 r.190                      -2         -1001               
   187 r.191                 18.1227       18.1227               
   188 r.192                    1000             2               
   189 r.193                   -1000         -1001               
   190 r.194                 975.282       14.4959               
   191 r.195                       2             2               
   192 r.196                      -2         -1001               
   193 r.197                 983.506       19.8472               
   194 r.198                    1000             2               
   195 r.199                   -1000         -1001               
   196 r.200                 2000.97       16.8051               
   197 r.201                    1001             2               
   198 r.202                   -1001         -1001               
   199 r.203                 2002.87       30.1364               
   200 r.204                    1001             2               
   201 r.205                   -1001         -1001               
   202 r.206                    2000       22.0674               
   203 r.207                    1001             2               
   204 r.208                   -1001         -1001               
   205 r.209                  979.89       16.2311               
   206 r.210                    1001             2               
   207 r.211                   -1001         -1001               
   208 r.212                 1975.24       14.4487               
   209 r.213                -965.014      -985.539               
   210 r.214                 41.1491      -988.176               
   211 r.215                -965.014      -985.539               
   212 r.216                 41.1491      -988.176               
   213 r.217                 34.7154      -961.631               
   214 r.218                -965.285      -984.085               
   215 r.219                 31.8428      -961.631               
   216 r.220                -968.157      -984.085               
   217 r.221                 34.7154      -961.372               
   218 r.222                  -981.2      -984.072               
   219 r.223                 31.8428      -961.372               
   220 r.224                -984.072      -984.072               
   221 r.225                    1001             2               
   222 r.226                   -1001         -1001               
   223 r.227                 1948.79       19.8472               
   224 r.228                    1001             2               
   225 r.229                   -1001         -1001               
   226 r.230                 1969.13       16.8051               
   227 r.231                    1000             2               
   228 r.232                   -1000         -1001               
   229 r.233                 1968.16       30.1364               
   230 r.234                       2             2               
   231 r.235                      -2         -1001               
   232 r.236                 968.157       22.0674               
   233 r.237                    1000             2               
   234 r.238                   -1000         -1001               
   235 r.239                 945.175       16.2311               
   236 r.240                       2             2               
   237 r.241                      -2         -1001               
   238 r.242                 943.392       14.4487               
   239 r.243                    1000             2               
   240 r.244                   -1000         -1001               
   241 r.245                    2000      -961.372               
   242 r.246                       2             2               
   243 r.247                      -2         -1001               
   244 r.248                -15.9151      -984.072               
   245 r.249                    1001             2               
   246 r.250                   -1001         -1001               
   247 r.251                 1983.41       18.1227               
   248 r.252                    1001             2               
   249 r.253                   -1001         -1001               
   250 r.254                 959.355       14.4959               
   251 r.255                    1000             2               
   252 r.256                   -1000         -1001               
   253 r.257                    2000       38.3693               
   254 r.258                       2             2               
   255 r.259                      -2         -1001               
   256 r.260                 15.9151       15.9151               

   No. Column name       Activity     Lower bound   Upper bound
------ ------------    ------------- ------------- -------------
     1 tt                    75.4044             0               
     2 s_1_1        *              1             0             1 
     3 t_1_1                 15.9151             0               
     4 s_1_7        *              0             0             1 
     5 s_2_1        *              0             0             1 
     6 t_2_1                 1057.53             0               
     7 s_2_7        *              1             0             1 
     8 s_1_2        *              1             0             1 
     9 t_1_2                 50.5315             0               
    10 s_1_8        *              0             0             1 
    11 s_2_2        *              0             0             1 
    12 t_2_2                 31.8428             0               
    13 s_2_8        *              1             0             1 
    14 s_1_3        *              0             0             1 
    15 t_1_3                 31.8428             0               
    16 s_2_3        *              1             0             1 
    17 t_2_3                 31.8428             0               
    18 s_1_4        *              0             0             1 
    19 t_1_4                 1054.83             0               
    20 s_2_4        *              1             0             1 
    21 t_2_4                 56.6076             0               
    22 s_1_5        *              1             0             1 
    23 t_1_5                 34.7154             0               
    24 s_2_5        *              0             0             1 
    25 t_2_5                 31.8428             0               
    26 s_1_6        *              1             0             1 
    27 t_1_6                 71.0563             0               
    28 s_2_6        *              0             0             1 
    29 t_2_6                 71.0563             0               
    30 t_1_7                       0             0               
    31 t_2_7                       0             0               
    32 t_1_8                       0             0               
    33 t_2_8                 15.9151             0               
    34 r_1_1_2      *              0             0             1 
    35 u_1_1_2      *              0             0             1 
    36 r_2_1_2      *              1             0             1 
    37 u_2_1_2      *              0             0             1 
    38 r_1_1_3      *              1             0             1 
    39 u_1_1_3      *              0             0             1 
    40 r_2_1_3      *              1             0             1 
    41 u_2_1_3      *              0             0             1 
    42 r_1_1_4      *              1             0             1 
    43 u_1_1_4      *              0             0             1 
    44 r_2_1_4      *              1             0             1 
    45 u_2_1_4      *              0             0             1 
    46 r_1_1_5      *              0             0             1 
    47 u_1_1_5      *              0             0             1 
    48 r_2_1_5      *              1             0             1 
    49 u_2_1_5      *              0             0             1 
    50 r_1_1_8      *              1             0             1 
    51 u_1_1_8      *              0             0             1 
    52 r_2_1_8      *              1             0             1 
    53 u_2_1_8      *              0             0             1 
    54 r_1_2_3      *              1             0             1 
    55 u_1_2_3      *              0             0             1 
    56 r_2_2_3      *              1             0             1 
    57 u_2_2_3      *              0             0             1 
    58 r_1_2_4      *              1             0             1 
    59 u_1_2_4      *              0             0             1 
    60 r_2_2_4      *              1             0             1 
    61 u_2_2_4      *              0             0             1 
    62 r_1_2_5      *              0             0             1 
    63 u_1_2_5      *              1             0             1 
    64 r_2_2_5      *              1             0             1 
    65 u_2_2_5      *              0             0             1 
    66 r_1_2_7      *              1             0             1 
    67 u_1_2_7      *              0             0             1 
    68 r_2_2_7      *              1             0             1 
    69 u_2_2_7      *              0             0             1 
    70 r_1_3_5      *              1             0             1 
    71 u_1_3_5      *              0             0             1 
    72 r_2_3_5      *              1             0             1 
    73 u_2_3_5      *              0             0             1 
    74 r_1_3_7      *              1             0             1 
    75 u_1_3_7      *              0             0             1 
    76 r_2_3_7      *              0             0             1 
    77 u_2_3_7      *              1             0             1 
    78 r_1_4_5      *              1             0             1 
    79 u_1_4_5      *              0             0             1 
    80 r_2_4_5      *              1             0             1 
    81 u_2_4_5      *              0             0             1 
    82 r_1_4_7      *              1             0             1 
    83 u_1_4_7      *              0             0             1 
    84 r_2_4_7      *              0             0             1 
    85 u_2_4_7      *              1             0             1 
    86 r_1_7_8      *              1             0             1 
    87 u_1_7_8      *              0             0             1 
    88 r_2_7_8      *              0             0             1 
    89 u_2_7_8      *              0             0             1 

Integer feasibility conditions:

KKT.PE: max.abs.err = 4.55e-13 on row 58
        max.rel.err = 1.10e-16 on row 158
        High quality

KKT.PB: max.abs.err = 1.14e-13 on row 66
        max.rel.err = 1.16e-16 on row 103
        High quality

End of output
